(set-info :source |printed by MathSAT|)
(declare-fun |.x{1670}| () Int)
(declare-fun |.x{1730}| () Int)
(declare-fun |.x{1671}| () (Array Int Int))
(declare-fun |.x{1731}| () (Array Int Int))
(declare-fun |.x{1672}| () (Array Int Int))
(declare-fun |.x{1732}| () (Array Int Int))
(declare-fun |.x{1673}| () (Array Int (Array Int Int)))
(declare-fun |.x{1733}| () (Array Int (Array Int Int)))
(declare-fun |.x{1674}| () (Array Int (Array Int Int)))
(declare-fun |.x{1734}| () (Array Int (Array Int Int)))
(declare-fun |.x{1675}| () Int)
(declare-fun |.x{1735}| () Int)
(declare-fun |.x{1676}| () Int)
(declare-fun |.x{1736}| () Int)
(declare-fun |.x{1677}| () (Array Int Int))
(declare-fun |.x{1737}| () (Array Int Int))
(declare-fun |.x{1678}| () (Array Int Int))
(declare-fun |.x{1738}| () (Array Int Int))
(declare-fun |.x{1679}| () Int)
(declare-fun |.x{1739}| () Int)
(declare-fun |.x{1680}| () Int)
(declare-fun |.x{1740}| () Int)
(declare-fun |.x{1681}| () Int)
(declare-fun |.x{1741}| () Int)
(declare-fun |.x{1682}| () Int)
(declare-fun |.x{1742}| () Int)
(declare-fun |.x{1683}| () Int)
(declare-fun |.x{1743}| () Int)
(declare-fun |.x{1684}| () Int)
(declare-fun |.x{1744}| () Int)
(declare-fun |.x{1685}| () Int)
(declare-fun |.x{1745}| () Int)
(declare-fun |.x{1686}| () Int)
(declare-fun |.x{1746}| () Int)
(declare-fun |.x{1687}| () Int)
(declare-fun |.x{1747}| () Int)
(declare-fun |.x{1688}| () Int)
(declare-fun |.x{1748}| () Int)
(declare-fun |.x{1689}| () Int)
(declare-fun |.x{1749}| () Int)
(declare-fun |.x{1690}| () Int)
(declare-fun |.x{1750}| () Int)
(declare-fun |.x{1691}| () Int)
(declare-fun |.x{1751}| () Int)
(declare-fun |.x{1692}| () Int)
(declare-fun |.x{1752}| () Int)
(declare-fun |.x{1693}| () Int)
(declare-fun |.x{1753}| () Int)
(declare-fun |.x{1694}| () Int)
(declare-fun |.x{1754}| () Int)
(declare-fun |.x{1695}| () Int)
(declare-fun |.x{1755}| () Int)
(declare-fun |.x{1696}| () Int)
(declare-fun |.x{1756}| () Int)
(declare-fun |.x{1697}| () Int)
(declare-fun |.x{1757}| () Int)
(declare-fun |.x{1698}| () Int)
(declare-fun |.x{1758}| () Int)
(declare-fun |.x{1729}| () Bool)
(declare-fun |.x{1699}| () Bool)
(declare-fun |.loc{5}| () Bool)
(declare-fun |.loc{9}| () Bool)
(declare-fun |.loc{6}| () Bool)
(declare-fun |.loc{10}| () Bool)
(declare-fun |.loc{7}| () Bool)
(declare-fun |.loc{11}| () Bool)
(declare-fun |.loc{8}| () Bool)
(declare-fun |.loc{12}| () Bool)
(declare-fun |.x{119}| () (Array Int Int))
(define-fun .def_70 () Bool (! |.loc{6}| :next |.loc{10}|))
(define-fun .def_138 () Bool (not .def_70))
(define-fun .def_68 () Bool (! |.loc{5}| :next |.loc{9}|))
(define-fun .def_629 () Bool (and .def_68 .def_138))
(define-fun .def_72 () Bool (! |.loc{7}| :next |.loc{11}|))
(define-fun .def_142 () Bool (not .def_72))
(define-fun .def_630 () Bool (and .def_142 .def_629))
(define-fun .def_74 () Bool (! |.loc{8}| :next |.loc{12}|))
(define-fun .def_135 () Bool (not .def_74))
(define-fun .def_631 () Bool (and .def_135 .def_630))
(define-fun .def_28 () Int (! |.x{1680}| :next |.x{1740}|))
(define-fun .def_26 () Int (! |.x{1679}| :next |.x{1739}|))
(define-fun .def_623 () Bool (= .def_26 .def_28))
(define-fun .def_16 () (Array Int (Array Int Int)) (! |.x{1674}| :next |.x{1734}|))
(define-fun .def_14 () (Array Int (Array Int Int)) (! |.x{1673}| :next |.x{1733}|))
(define-fun .def_622 () Bool (= .def_14 .def_16))
(define-fun .def_624 () Bool (and .def_622 .def_623))
(define-fun .def_20 () Int (! |.x{1676}| :next |.x{1736}|))
(define-fun .def_18 () Int (! |.x{1675}| :next |.x{1735}|))
(define-fun .def_621 () Bool (= .def_18 .def_20))
(define-fun .def_625 () Bool (and .def_621 .def_624))
(define-fun .def_24 () (Array Int Int) (! |.x{1678}| :next |.x{1738}|))
(define-fun .def_22 () (Array Int Int) (! |.x{1677}| :next |.x{1737}|))
(define-fun .def_620 () Bool (= .def_22 .def_24))
(define-fun .def_626 () Bool (and .def_620 .def_625))
(define-fun .def_12 () (Array Int Int) (! |.x{1672}| :next |.x{1732}|))
(define-fun .def_10 () (Array Int Int) (! |.x{1671}| :next |.x{1731}|))
(define-fun .def_619 () Bool (= .def_10 .def_12))
(define-fun .def_627 () Bool (and .def_619 .def_626))
(define-fun .def_66 () Bool (! |.x{1729}| :next |.x{1699}|))
(define-fun .def_618 () Bool (not .def_66))
(define-fun .def_628 () Bool (and .def_618 .def_627))
(define-fun .def_632 () Bool (! (and .def_628 .def_631) :init true))
(define-fun .def_615 () Bool (= .def_28 |.x{1740}|))
(define-fun .def_613 () Bool (= .def_24 |.x{1738}|))
(define-fun .def_611 () Bool (= .def_20 |.x{1736}|))
(define-fun .def_609 () Bool (= .def_16 |.x{1734}|))
(define-fun .def_8 () Int (! |.x{1670}| :next |.x{1730}|))
(define-fun .def_607 () Bool (= .def_8 |.x{1730}|))
(define-fun .def_606 () Bool (= .def_12 |.x{1732}|))
(define-fun .def_608 () Bool (and .def_606 .def_607))
(define-fun .def_610 () Bool (and .def_608 .def_609))
(define-fun .def_612 () Bool (and .def_610 .def_611))
(define-fun .def_614 () Bool (and .def_612 .def_613))
(define-fun .def_616 () Bool (and .def_614 .def_615))
(define-fun .def_154 () Bool (= .def_10 |.x{1731}|))
(define-fun .def_56 () Int (! |.x{1694}| :next |.x{1754}|))
(define-fun .def_149 () Bool (= .def_56 |.x{1754}|))
(define-fun .def_543 () Bool (and .def_149 .def_154))
(define-fun .def_568 () Bool (and .def_154 .def_543))
(define-fun .def_569 () Bool (and |.x{1699}| .def_568))
(define-fun .def_32 () Int (! |.x{1682}| :next |.x{1742}|))
(define-fun .def_182 () Bool (= .def_32 |.x{1742}|))
(define-fun .def_570 () Bool (and .def_182 .def_569))
(define-fun .def_44 () Int (! |.x{1688}| :next |.x{1748}|))
(define-fun .def_133 () Bool (= .def_44 |.x{1748}|))
(define-fun .def_571 () Bool (and .def_133 .def_570))
(define-fun .def_46 () Int (! |.x{1689}| :next |.x{1749}|))
(define-fun .def_192 () Bool (= .def_46 |.x{1749}|))
(define-fun .def_572 () Bool (and .def_192 .def_571))
(define-fun .def_197 () Bool (not .def_68))
(define-fun .def_573 () Bool (and .def_197 .def_572))
(define-fun .def_52 () Int (! |.x{1692}| :next |.x{1752}|))
(define-fun .def_209 () Bool (= .def_52 |.x{1752}|))
(define-fun .def_574 () Bool (and .def_209 .def_573))
(define-fun .def_54 () Int (! |.x{1693}| :next |.x{1753}|))
(define-fun .def_211 () Bool (= .def_54 |.x{1753}|))
(define-fun .def_575 () Bool (and .def_211 .def_574))
(define-fun .def_563 () Bool (= |.x{1754}| 0))
(define-fun .def_560 () (Array Int Int) (store .def_10 .def_46 0))
(define-fun .def_561 () (Array Int Int) (store .def_560 .def_54 0))
(define-fun .def_562 () Bool (= |.x{1731}| .def_561))
(define-fun .def_564 () Bool (and .def_562 .def_563))
(define-fun .def_565 () Bool (or .def_66 .def_564))
(define-fun .def_557 () Bool (= |.x{1748}| |.x{1754}|))
(define-fun .def_558 () Bool (or |.x{1699}| .def_557))
(define-fun .def_131 () Bool (= .def_66 |.x{1699}|))
(define-fun .def_559 () Bool (and .def_131 .def_558))
(define-fun .def_566 () Bool (and .def_559 .def_565))
(define-fun .def_567 () Bool (and .def_68 .def_566))
(define-fun .def_576 () Bool (or .def_567 .def_575))
(define-fun .def_577 () Bool (and |.loc{10}| .def_576))
(define-fun .def_578 () Bool (and .def_74 .def_577))
(define-fun .def_579 () Bool (and .def_138 .def_578))
(define-fun .def_580 () Bool (and .def_138 .def_579))
(define-fun .def_581 () Bool (and .def_142 .def_580))
(define-fun .def_36 () Int (! |.x{1684}| :next |.x{1744}|))
(define-fun .def_326 () Bool (= .def_36 0))
(define-fun .def_553 () Bool (or .def_66 .def_326))
(define-fun .def_544 () Bool (and .def_182 .def_543))
(define-fun .def_545 () Bool (and .def_131 .def_544))
(define-fun .def_278 () Bool (not |.loc{10}|))
(define-fun .def_546 () Bool (and .def_278 .def_545))
(define-fun .def_547 () Bool (and .def_133 .def_546))
(define-fun .def_548 () Bool (and .def_135 .def_547))
(define-fun .def_549 () Bool (and .def_192 .def_548))
(define-fun .def_550 () Bool (and .def_68 .def_549))
(define-fun .def_551 () Bool (and .def_70 .def_550))
(define-fun .def_552 () Bool (and .def_72 .def_551))
(define-fun .def_554 () Bool (and .def_552 .def_553))
(define-fun .def_555 () Bool (and .def_209 .def_554))
(define-fun .def_556 () Bool (and .def_211 .def_555))
(define-fun .def_582 () Bool (or .def_556 .def_581))
(define-fun .def_76 () Bool (not |.loc{9}|))
(define-fun .def_537 () Bool (and |.loc{12}| .def_76))
(define-fun .def_58 () Int (! |.x{1695}| :next |.x{1755}|))
(define-fun .def_78 () Bool (= .def_58 |.x{1755}|))
(define-fun .def_538 () Bool (and .def_78 .def_537))
(define-fun .def_80 () Bool (not |.loc{11}|))
(define-fun .def_539 () Bool (and .def_80 .def_538))
(define-fun .def_60 () Int (! |.x{1696}| :next |.x{1756}|))
(define-fun .def_176 () Bool (= .def_60 |.x{1756}|))
(define-fun .def_540 () Bool (and .def_176 .def_539))
(define-fun .def_62 () Int (! |.x{1697}| :next |.x{1757}|))
(define-fun .def_178 () Bool (= .def_62 |.x{1757}|))
(define-fun .def_541 () Bool (and .def_178 .def_540))
(define-fun .def_129 () Bool (= .def_36 |.x{1744}|))
(define-fun .def_542 () Bool (and .def_129 .def_541))
(define-fun .def_583 () Bool (and .def_542 .def_582))
(define-fun .def_516 () Bool (= |.x{1756}| |.x{1757}|))
(define-fun .def_517 () Int (ite .def_516 1 0))
(define-fun .def_518 () Bool (= |.x{1755}| .def_517))
(define-fun .def_515 () Bool (= |.x{1744}| |.x{1755}|))
(define-fun .def_519 () Bool (and .def_515 .def_518))
(define-fun .def_48 () Int (! |.x{1690}| :next |.x{1750}|))
(define-fun .def_428 () Bool (<= 100000 .def_48))
(define-fun .def_514 () Bool (not .def_428))
(define-fun .def_520 () Bool (and .def_514 .def_519))
(define-fun .def_506 () Int (* 4 .def_48))
(define-fun .def_511 () Int (+ .def_506 .def_52))
(define-fun .def_166 () (Array Int Int) (select .def_14 .def_46))
(define-fun .def_512 () Int (select .def_166 .def_511))
(define-fun .def_513 () Bool (= |.x{1757}| .def_512))
(define-fun .def_521 () Bool (and .def_513 .def_520))
(define-fun .def_507 () Int (+ .def_32 .def_506))
(define-fun .def_359 () (Array Int Int) (select .def_14 .def_54))
(define-fun .def_508 () Int (select .def_359 .def_507))
(define-fun .def_509 () Bool (= |.x{1756}| .def_508))
(define-fun .def_522 () Bool (and .def_509 .def_521))
(define-fun .def_523 () Bool (or .def_66 .def_522))
(define-fun .def_465 () Bool (and |.loc{10}| |.loc{11}|))
(define-fun .def_466 () Bool (and .def_149 .def_465))
(define-fun .def_505 () Bool (and .def_154 .def_466))
(define-fun .def_524 () Bool (and .def_505 .def_523))
(define-fun .def_525 () Bool (and .def_182 .def_524))
(define-fun .def_526 () Bool (and .def_131 .def_525))
(define-fun .def_527 () Bool (and .def_133 .def_526))
(define-fun .def_528 () Bool (and .def_135 .def_527))
(define-fun .def_529 () Bool (and .def_192 .def_528))
(define-fun .def_530 () Bool (and .def_70 .def_529))
(define-fun .def_531 () Bool (and .def_72 .def_530))
(define-fun .def_532 () Bool (and .def_197 .def_531))
(define-fun .def_140 () Bool (not |.loc{12}|))
(define-fun .def_533 () Bool (and .def_140 .def_532))
(define-fun .def_534 () Bool (and .def_209 .def_533))
(define-fun .def_535 () Bool (and .def_211 .def_534))
(define-fun .def_536 () Bool (and |.loc{9}| .def_535))
(define-fun .def_584 () Bool (or .def_536 .def_583))
(define-fun .def_195 () Bool (= .def_48 |.x{1750}|))
(define-fun .def_585 () Bool (and .def_195 .def_584))
(define-fun .def_50 () Int (! |.x{1691}| :next |.x{1751}|))
(define-fun .def_199 () Bool (= .def_50 |.x{1751}|))
(define-fun .def_586 () Bool (and .def_199 .def_585))
(define-fun .def_488 () Int (* (- 1) |.x{1750}|))
(define-fun .def_489 () Int (+ .def_48 .def_488))
(define-fun .def_490 () Bool (= .def_489 (- 1)))
(define-fun .def_491 () Bool (or |.x{1699}| .def_490))
(define-fun .def_467 () Bool (and .def_76 .def_466))
(define-fun .def_486 () Bool (and .def_78 .def_467))
(define-fun .def_487 () Bool (and .def_154 .def_486))
(define-fun .def_492 () Bool (and .def_487 .def_491))
(define-fun .def_493 () Bool (and .def_182 .def_492))
(define-fun .def_494 () Bool (and .def_129 .def_493))
(define-fun .def_495 () Bool (and .def_131 .def_494))
(define-fun .def_496 () Bool (and .def_133 .def_495))
(define-fun .def_497 () Bool (and .def_135 .def_496))
(define-fun .def_498 () Bool (and .def_192 .def_497))
(define-fun .def_499 () Bool (and .def_197 .def_498))
(define-fun .def_500 () Bool (and .def_138 .def_499))
(define-fun .def_501 () Bool (and .def_140 .def_500))
(define-fun .def_502 () Bool (and .def_142 .def_501))
(define-fun .def_503 () Bool (and .def_209 .def_502))
(define-fun .def_504 () Bool (and .def_211 .def_503))
(define-fun .def_587 () Bool (or .def_504 .def_586))
(define-fun .def_463 () Bool (= |.x{1750}| 0))
(define-fun .def_464 () Bool (or .def_66 .def_463))
(define-fun .def_468 () Bool (and .def_464 .def_467))
(define-fun .def_469 () Bool (and .def_78 .def_468))
(define-fun .def_470 () Bool (and .def_154 .def_469))
(define-fun .def_471 () Bool (and .def_176 .def_470))
(define-fun .def_472 () Bool (and .def_178 .def_471))
(define-fun .def_473 () Bool (and .def_182 .def_472))
(define-fun .def_474 () Bool (and .def_129 .def_473))
(define-fun .def_475 () Bool (and .def_131 .def_474))
(define-fun .def_476 () Bool (and .def_133 .def_475))
(define-fun .def_477 () Bool (and .def_135 .def_476))
(define-fun .def_478 () Bool (and .def_192 .def_477))
(define-fun .def_479 () Bool (and .def_68 .def_478))
(define-fun .def_480 () Bool (and .def_72 .def_479))
(define-fun .def_481 () Bool (and .def_138 .def_480))
(define-fun .def_482 () Bool (and .def_199 .def_481))
(define-fun .def_483 () Bool (and .def_140 .def_482))
(define-fun .def_484 () Bool (and .def_209 .def_483))
(define-fun .def_485 () Bool (and .def_211 .def_484))
(define-fun .def_588 () Bool (or .def_485 .def_587))
(define-fun .def_421 () Bool (and |.loc{12}| .def_149))
(define-fun .def_422 () Bool (and .def_78 .def_421))
(define-fun .def_423 () Bool (and .def_80 .def_422))
(define-fun .def_424 () Bool (and .def_154 .def_423))
(define-fun .def_445 () Bool (and .def_66 .def_424))
(define-fun .def_446 () Bool (and .def_176 .def_445))
(define-fun .def_447 () Bool (and .def_178 .def_446))
(define-fun .def_448 () Bool (and .def_182 .def_447))
(define-fun .def_449 () Bool (and .def_129 .def_448))
(define-fun .def_450 () Bool (and .def_131 .def_449))
(define-fun .def_451 () Bool (and .def_278 .def_450))
(define-fun .def_452 () Bool (and .def_133 .def_451))
(define-fun .def_453 () Bool (and .def_135 .def_452))
(define-fun .def_454 () Bool (and .def_192 .def_453))
(define-fun .def_455 () Bool (and .def_70 .def_454))
(define-fun .def_456 () Bool (and .def_72 .def_455))
(define-fun .def_457 () Bool (and .def_195 .def_456))
(define-fun .def_458 () Bool (and .def_197 .def_457))
(define-fun .def_459 () Bool (and .def_199 .def_458))
(define-fun .def_460 () Bool (and .def_209 .def_459))
(define-fun .def_461 () Bool (and .def_211 .def_460))
(define-fun .def_462 () Bool (and |.loc{9}| .def_461))
(define-fun .def_589 () Bool (or .def_462 .def_588))
(define-fun .def_429 () Bool (or .def_66 .def_428))
(define-fun .def_425 () Bool (and .def_176 .def_424))
(define-fun .def_426 () Bool (and .def_178 .def_425))
(define-fun .def_427 () Bool (and .def_182 .def_426))
(define-fun .def_430 () Bool (and .def_427 .def_429))
(define-fun .def_431 () Bool (and .def_129 .def_430))
(define-fun .def_432 () Bool (and .def_131 .def_431))
(define-fun .def_433 () Bool (and .def_278 .def_432))
(define-fun .def_434 () Bool (and .def_133 .def_433))
(define-fun .def_435 () Bool (and .def_135 .def_434))
(define-fun .def_436 () Bool (and .def_192 .def_435))
(define-fun .def_437 () Bool (and .def_70 .def_436))
(define-fun .def_438 () Bool (and .def_72 .def_437))
(define-fun .def_439 () Bool (and .def_195 .def_438))
(define-fun .def_440 () Bool (and .def_197 .def_439))
(define-fun .def_441 () Bool (and .def_199 .def_440))
(define-fun .def_442 () Bool (and .def_209 .def_441))
(define-fun .def_443 () Bool (and .def_211 .def_442))
(define-fun .def_444 () Bool (and |.loc{9}| .def_443))
(define-fun .def_590 () Bool (or .def_444 .def_589))
(define-fun .def_266 () Bool (and |.loc{11}| .def_149))
(define-fun .def_380 () Bool (and .def_78 .def_266))
(define-fun .def_381 () Bool (and .def_154 .def_380))
(define-fun .def_402 () Bool (and .def_66 .def_381))
(define-fun .def_403 () Bool (and .def_176 .def_402))
(define-fun .def_404 () Bool (and .def_178 .def_403))
(define-fun .def_405 () Bool (and .def_182 .def_404))
(define-fun .def_406 () Bool (and .def_129 .def_405))
(define-fun .def_407 () Bool (and .def_131 .def_406))
(define-fun .def_408 () Bool (and .def_278 .def_407))
(define-fun .def_409 () Bool (and .def_133 .def_408))
(define-fun .def_410 () Bool (and .def_135 .def_409))
(define-fun .def_411 () Bool (and .def_192 .def_410))
(define-fun .def_412 () Bool (and .def_195 .def_411))
(define-fun .def_413 () Bool (and .def_72 .def_412))
(define-fun .def_414 () Bool (and .def_197 .def_413))
(define-fun .def_415 () Bool (and .def_199 .def_414))
(define-fun .def_416 () Bool (and .def_138 .def_415))
(define-fun .def_417 () Bool (and .def_140 .def_416))
(define-fun .def_418 () Bool (and .def_209 .def_417))
(define-fun .def_419 () Bool (and .def_211 .def_418))
(define-fun .def_420 () Bool (and |.loc{9}| .def_419))
(define-fun .def_591 () Bool (or .def_420 .def_590))
(define-fun .def_40 () Int (! |.x{1686}| :next |.x{1746}|))
(define-fun .def_352 () Bool (<= 100000 .def_40))
(define-fun .def_387 () Bool (or .def_66 .def_352))
(define-fun .def_382 () Bool (and .def_176 .def_381))
(define-fun .def_383 () Bool (and .def_178 .def_382))
(define-fun .def_384 () Bool (and .def_182 .def_383))
(define-fun .def_385 () Bool (and .def_129 .def_384))
(define-fun .def_386 () Bool (and .def_131 .def_385))
(define-fun .def_388 () Bool (and .def_386 .def_387))
(define-fun .def_389 () Bool (and .def_278 .def_388))
(define-fun .def_390 () Bool (and .def_133 .def_389))
(define-fun .def_391 () Bool (and .def_135 .def_390))
(define-fun .def_392 () Bool (and .def_192 .def_391))
(define-fun .def_393 () Bool (and .def_72 .def_392))
(define-fun .def_394 () Bool (and .def_195 .def_393))
(define-fun .def_395 () Bool (and .def_197 .def_394))
(define-fun .def_396 () Bool (and .def_138 .def_395))
(define-fun .def_397 () Bool (and .def_199 .def_396))
(define-fun .def_398 () Bool (and .def_140 .def_397))
(define-fun .def_399 () Bool (and .def_209 .def_398))
(define-fun .def_400 () Bool (and .def_211 .def_399))
(define-fun .def_401 () Bool (and |.loc{9}| .def_400))
(define-fun .def_592 () Bool (or .def_401 .def_591))
(define-fun .def_64 () Int (! |.x{1698}| :next |.x{1758}|))
(define-fun .def_180 () Bool (= .def_64 |.x{1758}|))
(define-fun .def_82 () Bool (= .def_14 |.x{1733}|))
(define-fun .def_379 () Bool (and .def_82 .def_180))
(define-fun .def_593 () Bool (and .def_379 .def_592))
(define-fun .def_38 () Int (! |.x{1685}| :next |.x{1745}|))
(define-fun .def_185 () Bool (= .def_38 |.x{1745}|))
(define-fun .def_594 () Bool (and .def_185 .def_593))
(define-fun .def_187 () Bool (= .def_40 |.x{1746}|))
(define-fun .def_595 () Bool (and .def_187 .def_594))
(define-fun .def_354 () Int (* 4 .def_40))
(define-fun .def_356 () Int (+ .def_354 .def_52))
(define-fun .def_357 () Int (select .def_166 .def_356))
(define-fun .def_358 () Int (+ .def_32 .def_354))
(define-fun .def_360 () (Array Int Int) (store .def_359 .def_358 .def_357))
(define-fun .def_361 () (Array Int (Array Int Int)) (store .def_14 .def_54 .def_360))
(define-fun .def_362 () Bool (= |.x{1733}| .def_361))
(define-fun .def_353 () Bool (not .def_352))
(define-fun .def_363 () Bool (and .def_353 .def_362))
(define-fun .def_364 () Bool (or .def_66 .def_363))
(define-fun .def_345 () Int (* (- 1) |.x{1746}|))
(define-fun .def_346 () Int (+ .def_40 .def_345))
(define-fun .def_347 () Bool (= .def_346 (- 1)))
(define-fun .def_348 () Bool (or |.x{1699}| .def_347))
(define-fun .def_267 () Bool (and .def_76 .def_266))
(define-fun .def_268 () Bool (and .def_78 .def_267))
(define-fun .def_269 () Bool (and .def_154 .def_268))
(define-fun .def_270 () Bool (and .def_176 .def_269))
(define-fun .def_271 () Bool (and .def_178 .def_270))
(define-fun .def_349 () Bool (and .def_271 .def_348))
(define-fun .def_350 () Bool (and .def_182 .def_349))
(define-fun .def_351 () Bool (and .def_129 .def_350))
(define-fun .def_365 () Bool (and .def_351 .def_364))
(define-fun .def_366 () Bool (and .def_131 .def_365))
(define-fun .def_367 () Bool (and .def_278 .def_366))
(define-fun .def_368 () Bool (and .def_133 .def_367))
(define-fun .def_369 () Bool (and .def_135 .def_368))
(define-fun .def_370 () Bool (and .def_192 .def_369))
(define-fun .def_371 () Bool (and .def_72 .def_370))
(define-fun .def_372 () Bool (and .def_195 .def_371))
(define-fun .def_373 () Bool (and .def_197 .def_372))
(define-fun .def_374 () Bool (and .def_138 .def_373))
(define-fun .def_375 () Bool (and .def_199 .def_374))
(define-fun .def_376 () Bool (and .def_140 .def_375))
(define-fun .def_377 () Bool (and .def_209 .def_376))
(define-fun .def_378 () Bool (and .def_211 .def_377))
(define-fun .def_596 () Bool (or .def_378 .def_595))
(define-fun .def_327 () Bool (not .def_326))
(define-fun .def_328 () Bool (or .def_66 .def_327))
(define-fun .def_294 () Bool (and .def_76 .def_149))
(define-fun .def_295 () Bool (and .def_78 .def_294))
(define-fun .def_296 () Bool (and .def_80 .def_295))
(define-fun .def_297 () Bool (and .def_154 .def_296))
(define-fun .def_320 () Bool (and .def_176 .def_297))
(define-fun .def_321 () Bool (and .def_178 .def_320))
(define-fun .def_322 () Bool (and .def_82 .def_321))
(define-fun .def_323 () Bool (and .def_180 .def_322))
(define-fun .def_324 () Bool (and .def_182 .def_323))
(define-fun .def_325 () Bool (and .def_129 .def_324))
(define-fun .def_329 () Bool (and .def_325 .def_328))
(define-fun .def_330 () Bool (and .def_185 .def_329))
(define-fun .def_331 () Bool (and .def_187 .def_330))
(define-fun .def_332 () Bool (and .def_131 .def_331))
(define-fun .def_333 () Bool (and .def_278 .def_332))
(define-fun .def_334 () Bool (and .def_133 .def_333))
(define-fun .def_335 () Bool (and .def_135 .def_334))
(define-fun .def_336 () Bool (and .def_192 .def_335))
(define-fun .def_337 () Bool (and .def_68 .def_336))
(define-fun .def_338 () Bool (and .def_70 .def_337))
(define-fun .def_339 () Bool (and .def_72 .def_338))
(define-fun .def_340 () Bool (and .def_195 .def_339))
(define-fun .def_341 () Bool (and .def_199 .def_340))
(define-fun .def_342 () Bool (and .def_140 .def_341))
(define-fun .def_343 () Bool (and .def_209 .def_342))
(define-fun .def_344 () Bool (and .def_211 .def_343))
(define-fun .def_597 () Bool (or .def_344 .def_596))
(define-fun .def_298 () Bool (and .def_66 .def_297))
(define-fun .def_299 () Bool (and .def_176 .def_298))
(define-fun .def_300 () Bool (and .def_178 .def_299))
(define-fun .def_301 () Bool (and .def_82 .def_300))
(define-fun .def_302 () Bool (and .def_180 .def_301))
(define-fun .def_303 () Bool (and .def_182 .def_302))
(define-fun .def_304 () Bool (and .def_129 .def_303))
(define-fun .def_305 () Bool (and .def_185 .def_304))
(define-fun .def_306 () Bool (and .def_187 .def_305))
(define-fun .def_307 () Bool (and .def_131 .def_306))
(define-fun .def_308 () Bool (and .def_278 .def_307))
(define-fun .def_309 () Bool (and .def_133 .def_308))
(define-fun .def_310 () Bool (and .def_192 .def_309))
(define-fun .def_311 () Bool (and .def_195 .def_310))
(define-fun .def_312 () Bool (and .def_74 .def_311))
(define-fun .def_313 () Bool (and .def_197 .def_312))
(define-fun .def_314 () Bool (and .def_138 .def_313))
(define-fun .def_315 () Bool (and .def_199 .def_314))
(define-fun .def_316 () Bool (and .def_140 .def_315))
(define-fun .def_317 () Bool (and .def_142 .def_316))
(define-fun .def_318 () Bool (and .def_209 .def_317))
(define-fun .def_319 () Bool (and .def_211 .def_318))
(define-fun .def_598 () Bool (or .def_319 .def_597))
(define-fun .def_286 () Bool (= |.x{1746}| 0))
(define-fun .def_287 () Bool (or .def_66 .def_286))
(define-fun .def_272 () Bool (and .def_82 .def_271))
(define-fun .def_273 () Bool (and .def_180 .def_272))
(define-fun .def_274 () Bool (and .def_182 .def_273))
(define-fun .def_275 () Bool (and .def_129 .def_274))
(define-fun .def_276 () Bool (and .def_185 .def_275))
(define-fun .def_277 () Bool (and .def_131 .def_276))
(define-fun .def_279 () Bool (and .def_277 .def_278))
(define-fun .def_280 () Bool (and .def_133 .def_279))
(define-fun .def_281 () Bool (and .def_135 .def_280))
(define-fun .def_282 () Bool (and .def_192 .def_281))
(define-fun .def_283 () Bool (and .def_68 .def_282))
(define-fun .def_284 () Bool (and .def_70 .def_283))
(define-fun .def_285 () Bool (and .def_195 .def_284))
(define-fun .def_288 () Bool (and .def_285 .def_287))
(define-fun .def_289 () Bool (and .def_199 .def_288))
(define-fun .def_290 () Bool (and .def_140 .def_289))
(define-fun .def_291 () Bool (and .def_142 .def_290))
(define-fun .def_292 () Bool (and .def_209 .def_291))
(define-fun .def_293 () Bool (and .def_211 .def_292))
(define-fun .def_599 () Bool (or .def_293 .def_598))
(define-fun .def_150 () Bool (and |.loc{10}| .def_149))
(define-fun .def_219 () Bool (and .def_78 .def_150))
(define-fun .def_220 () Bool (and .def_80 .def_219))
(define-fun .def_221 () Bool (and .def_154 .def_220))
(define-fun .def_244 () Bool (and .def_66 .def_221))
(define-fun .def_245 () Bool (and .def_176 .def_244))
(define-fun .def_246 () Bool (and .def_178 .def_245))
(define-fun .def_247 () Bool (and .def_82 .def_246))
(define-fun .def_248 () Bool (and .def_180 .def_247))
(define-fun .def_249 () Bool (and .def_182 .def_248))
(define-fun .def_250 () Bool (and .def_129 .def_249))
(define-fun .def_251 () Bool (and .def_185 .def_250))
(define-fun .def_252 () Bool (and .def_187 .def_251))
(define-fun .def_253 () Bool (and .def_131 .def_252))
(define-fun .def_254 () Bool (and .def_133 .def_253))
(define-fun .def_255 () Bool (and .def_135 .def_254))
(define-fun .def_256 () Bool (and .def_192 .def_255))
(define-fun .def_257 () Bool (and .def_70 .def_256))
(define-fun .def_258 () Bool (and .def_195 .def_257))
(define-fun .def_259 () Bool (and .def_197 .def_258))
(define-fun .def_260 () Bool (and .def_199 .def_259))
(define-fun .def_261 () Bool (and .def_140 .def_260))
(define-fun .def_262 () Bool (and .def_142 .def_261))
(define-fun .def_263 () Bool (and .def_209 .def_262))
(define-fun .def_264 () Bool (and .def_211 .def_263))
(define-fun .def_265 () Bool (and |.loc{9}| .def_264))
(define-fun .def_600 () Bool (or .def_265 .def_599))
(define-fun .def_34 () Int (! |.x{1683}| :next |.x{1743}|))
(define-fun .def_161 () Bool (<= 100000 .def_34))
(define-fun .def_218 () Bool (or .def_66 .def_161))
(define-fun .def_222 () Bool (and .def_218 .def_221))
(define-fun .def_223 () Bool (and .def_176 .def_222))
(define-fun .def_224 () Bool (and .def_178 .def_223))
(define-fun .def_225 () Bool (and .def_82 .def_224))
(define-fun .def_226 () Bool (and .def_180 .def_225))
(define-fun .def_227 () Bool (and .def_182 .def_226))
(define-fun .def_228 () Bool (and .def_129 .def_227))
(define-fun .def_229 () Bool (and .def_185 .def_228))
(define-fun .def_230 () Bool (and .def_187 .def_229))
(define-fun .def_231 () Bool (and .def_131 .def_230))
(define-fun .def_232 () Bool (and .def_133 .def_231))
(define-fun .def_233 () Bool (and .def_135 .def_232))
(define-fun .def_234 () Bool (and .def_192 .def_233))
(define-fun .def_235 () Bool (and .def_70 .def_234))
(define-fun .def_236 () Bool (and .def_195 .def_235))
(define-fun .def_237 () Bool (and .def_197 .def_236))
(define-fun .def_238 () Bool (and .def_199 .def_237))
(define-fun .def_239 () Bool (and .def_140 .def_238))
(define-fun .def_240 () Bool (and .def_142 .def_239))
(define-fun .def_241 () Bool (and .def_209 .def_240))
(define-fun .def_242 () Bool (and .def_211 .def_241))
(define-fun .def_243 () Bool (and |.loc{9}| .def_242))
(define-fun .def_601 () Bool (or .def_243 .def_600))
(define-fun .def_42 () Int (! |.x{1687}| :next |.x{1747}|))
(define-fun .def_216 () Bool (= .def_42 |.x{1747}|))
(define-fun .def_30 () Int (! |.x{1681}| :next |.x{1741}|))
(define-fun .def_214 () Bool (= .def_30 |.x{1741}|))
(define-fun .def_213 () Bool (= .def_34 |.x{1743}|))
(define-fun .def_215 () Bool (and .def_213 .def_214))
(define-fun .def_217 () Bool (and .def_215 .def_216))
(define-fun .def_602 () Bool (and .def_217 .def_601))
(define-fun .def_203 () Int (* (- 1) |.x{1743}|))
(define-fun .def_204 () Int (+ .def_34 .def_203))
(define-fun .def_205 () Bool (= .def_204 (- 1)))
(define-fun .def_206 () Bool (or |.x{1699}| .def_205))
(define-fun .def_164 () Int (* 4 .def_34))
(define-fun .def_167 () Int (+ .def_164 .def_52))
(define-fun .def_168 () (Array Int Int) (store .def_166 .def_167 .def_30))
(define-fun .def_169 () (Array Int (Array Int Int)) (store .def_14 .def_46 .def_168))
(define-fun .def_170 () Bool (= |.x{1733}| .def_169))
(define-fun .def_162 () Bool (not .def_161))
(define-fun .def_171 () Bool (and .def_162 .def_170))
(define-fun .def_159 () Bool (<= .def_30 2147483647))
(define-fun .def_172 () Bool (and .def_159 .def_171))
(define-fun .def_157 () Bool (<= (- 2147483648) .def_30))
(define-fun .def_173 () Bool (and .def_157 .def_172))
(define-fun .def_174 () Bool (or .def_66 .def_173))
(define-fun .def_151 () Bool (and .def_76 .def_150))
(define-fun .def_152 () Bool (and .def_78 .def_151))
(define-fun .def_153 () Bool (and .def_80 .def_152))
(define-fun .def_155 () Bool (and .def_153 .def_154))
(define-fun .def_175 () Bool (and .def_155 .def_174))
(define-fun .def_177 () Bool (and .def_175 .def_176))
(define-fun .def_179 () Bool (and .def_177 .def_178))
(define-fun .def_181 () Bool (and .def_179 .def_180))
(define-fun .def_183 () Bool (and .def_181 .def_182))
(define-fun .def_184 () Bool (and .def_129 .def_183))
(define-fun .def_186 () Bool (and .def_184 .def_185))
(define-fun .def_188 () Bool (and .def_186 .def_187))
(define-fun .def_189 () Bool (and .def_131 .def_188))
(define-fun .def_190 () Bool (and .def_133 .def_189))
(define-fun .def_191 () Bool (and .def_135 .def_190))
(define-fun .def_193 () Bool (and .def_191 .def_192))
(define-fun .def_194 () Bool (and .def_70 .def_193))
(define-fun .def_196 () Bool (and .def_194 .def_195))
(define-fun .def_198 () Bool (and .def_196 .def_197))
(define-fun .def_200 () Bool (and .def_198 .def_199))
(define-fun .def_201 () Bool (and .def_140 .def_200))
(define-fun .def_207 () Bool (and .def_201 .def_206))
(define-fun .def_208 () Bool (and .def_142 .def_207))
(define-fun .def_210 () Bool (and .def_208 .def_209))
(define-fun .def_212 () Bool (and .def_210 .def_211))
(define-fun .def_603 () Bool (or .def_212 .def_602))
(define-fun .def_147 () Bool (= .def_26 |.x{1739}|))
(define-fun .def_145 () Bool (= .def_18 |.x{1735}|))
(define-fun .def_144 () Bool (= .def_22 |.x{1737}|))
(define-fun .def_146 () Bool (and .def_144 .def_145))
(define-fun .def_148 () Bool (and .def_146 .def_147))
(define-fun .def_604 () Bool (and .def_148 .def_603))
(define-fun .def_124 () Bool (= |.x{1739}| 0))
(define-fun .def_123 () Bool (= |.x{1735}| 0))
(define-fun .def_125 () Bool (and .def_123 .def_124))
(define-fun .def_121 () (Array Int Int) (store .def_10 0 0))
(define-fun .def_122 () Bool (= |.x{119}| .def_121))
(define-fun .def_126 () Bool (and .def_122 .def_125))
(define-fun .def_127 () Bool (or .def_66 .def_126))
(define-fun .def_114 () Bool (<= |.x{1730}| |.x{1753}|))
(define-fun .def_115 () Bool (not .def_114))
(define-fun .def_110 () (Array Int Int) (store .def_22 |.x{1749}| 400000))
(define-fun .def_111 () (Array Int Int) (store .def_110 |.x{1753}| 400000))
(define-fun .def_112 () Bool (= |.x{1737}| .def_111))
(define-fun .def_103 () Bool (<= |.x{1730}| |.x{1749}|))
(define-fun .def_104 () Bool (not .def_103))
(define-fun .def_99 () Int (select |.x{119}| |.x{1749}|))
(define-fun .def_100 () Bool (= .def_99 0))
(define-fun .def_98 () Bool (= |.x{1752}| 0))
(define-fun .def_101 () Bool (and .def_98 .def_100))
(define-fun .def_96 () Bool (= |.x{1753}| 0))
(define-fun .def_97 () Bool (not .def_96))
(define-fun .def_102 () Bool (and .def_97 .def_101))
(define-fun .def_105 () Bool (and .def_102 .def_104))
(define-fun .def_88 () (Array Int Int) (store |.x{119}| |.x{1749}| 1))
(define-fun .def_94 () Int (select .def_88 |.x{1753}|))
(define-fun .def_95 () Bool (= .def_94 0))
(define-fun .def_106 () Bool (and .def_95 .def_105))
(define-fun .def_93 () Bool (= |.x{1742}| 0))
(define-fun .def_107 () Bool (and .def_93 .def_106))
(define-fun .def_91 () Bool (= |.x{1749}| 0))
(define-fun .def_92 () Bool (not .def_91))
(define-fun .def_108 () Bool (and .def_92 .def_107))
(define-fun .def_113 () Bool (and .def_108 .def_112))
(define-fun .def_116 () Bool (and .def_113 .def_115))
(define-fun .def_89 () (Array Int Int) (store .def_88 |.x{1753}| 1))
(define-fun .def_90 () Bool (= |.x{1731}| .def_89))
(define-fun .def_117 () Bool (and .def_90 .def_116))
(define-fun .def_85 () Bool (= |.x{1743}| 0))
(define-fun .def_118 () Bool (and .def_85 .def_117))
(define-fun .def_119 () Bool (or |.x{1699}| .def_118))
(define-fun .def_77 () Bool (and |.loc{10}| .def_76))
(define-fun .def_79 () Bool (and .def_77 .def_78))
(define-fun .def_81 () Bool (and .def_79 .def_80))
(define-fun .def_83 () Bool (and .def_81 .def_82))
(define-fun .def_120 () Bool (and .def_83 .def_119))
(define-fun .def_128 () Bool (and .def_120 .def_127))
(define-fun .def_130 () Bool (and .def_128 .def_129))
(define-fun .def_132 () Bool (and .def_130 .def_131))
(define-fun .def_134 () Bool (and .def_132 .def_133))
(define-fun .def_136 () Bool (and .def_134 .def_135))
(define-fun .def_137 () Bool (and .def_68 .def_136))
(define-fun .def_139 () Bool (and .def_137 .def_138))
(define-fun .def_141 () Bool (and .def_139 .def_140))
(define-fun .def_143 () Bool (and .def_141 .def_142))
(define-fun .def_605 () Bool (or .def_143 .def_604))
(define-fun .def_617 () Bool (! (and .def_605 .def_616) :trans true))
(define-fun .def_633 () Bool (and .def_70 .def_197))
(define-fun .def_634 () Bool (and .def_142 .def_633))
(define-fun .def_635 () Bool (and .def_74 .def_634))
(define-fun .def_636 () Bool (and .def_66 .def_635))
(define-fun .def_637 () Bool (! (not .def_636) :invar-property 0))
(assert true)
